param set_len = 16;
param target_sum = 8367826;
param values := [1] 1015609 [2] 1713151 [3] 651071 [4] 327787 [5] 1401901 [6] 1943673 [7] 863028 [8] 1005855 [9] 134046 [10] 31108 [11] 1772672 [12] 1748926 [13] 1905183 [14] 1224005 [15] 1816226 [16] 163149 ;
